NAME : xql662
COMMENT : Bonn VLSI data set with 662 points
COMMENT : Uni Bonn, Research Institute for Discrete Math
COMMENT : Contributed by Andre Rohe
TYPE : TSP
DIMENSION : 662
EDGE_WEIGHT_TYPE : EUC_2D
NODE_COORD_SECTION
0	8	9	10	11	42	48	55	
0	8	9	10	11	42	48	55	

Path: 
1	9	10	11	12	43	49	56	2	13	14	15	34	37	44	50	54	57	58	59	60	61	69	70	73	74	62	63	64	65	71	75	76	77	82	66	67	68	72	78	79	80	81	100	101	105	124	125	126	127	128	129	138	139	140	151	152	157	164	174	175	176	177	200	201	202	210	211	212	218	230	240	248	249	250	213	215	216	223	224	225	231	232	242	251	252	254	266	291	303	304	305	306	311	312	313	321	322	333	343	344	345	357	375	386	387	389	390	391	392	394	395	396	402	403	412	422	424	425	426	458	459	465	466	468	469	477	478	481	484	485	487	488	499	500	501	435	479	502	507	508	542	543	544	546	547	548	549	550	558	565	566	567	589	590	615	616	617	620	621	622	625	626	634	645	646	647	611	612	613	614	618	635	636	641	642	643	644	535	536	540	541	545	557	564	578	579	580	586	574	575	576	577	585	596	597	598	599	607	608	609	610	624	631	632	633	640	649	650	572	573	583	584	592	593	594	595	603	604	605	606	619	623	628	629	630	637	638	639	648	587	588	600	601	602	627	651	652	653	654	655	656	657	658	659	660	661	662	496	497	498	505	506	526	527	528	529	530	531	532	533	534	537	494	495	518	519	520	521	522	523	524	525	538	554	555	562	563	551	552	553	556	559	560	561	568	569	570	571	581	582	591	472	480	482	483	486	489	490	491	492	493	503	504	509	510	511	512	513	514	515	516	517	539	436	437	438	439	440	441	442	443	444	445	467	473	474	446	447	448	449	461	462	463	464	470	471	475	476	434	450	451	452	453	454	455	456	460	414	419	420	421	431	432	433	457	349	350	351	355	368	369	370	371	372	373	374	384	385	401	411	416	417	418	430	399	400	408	409	410	363	364	365	366	367	379	380	381	382	383	393	397	398	406	407	415	429	347	354	360	361	362	377	378	358	359	376	388	404	405	413	423	427	428	302	331	334	335	336	346	267	268	269	293	294	295	296	308	314	315	323	324	325	337	338	259	270	271	272	273	274	275	276	277	297	298	299	300	309	310	316	317	318	319	320	326	327	328	329	330	339	340	341	348	278	279	280	281	282	283	284	292	301	246	260	261	262	263	207	221	222	228	229	236	237	238	244	217	219	220	226	227	234	235	243	186	187	188	205	168	169	189	190	191	192	206	193	194	208	161	162	163	170	171	179	180	142	143	144	145	148	149	150	156	99	102	108	109	110	111	112	113	114	115	116	135	136	137	103	104	117	118	119	120	121	122	123	130	172	173	181	182	195	196	197	198	199	256	257	258	264	285	286	287	288	289	290	307	332	342	352	353	356	131	141	154	155	159	160	165	166	167	183	184	83	89	91	92	94	106	53	55	36	38	39	40	41	46	47	5	6	25	26	27	28	29	30	31	32	35	45	52	3	4	16	17	18	19	20	21	22	23	24	7	8	33	42	48	51	84	85	86	87	88	90	93	95	96	97	98	107	132	133	134	146	147	153	178	158	185	203	204	209	214	233	239	241	245	247	253	255	265	1	
Dist: 4614.598869030193562
Execution time: 19(ms)
TSP algorithm time: 18(ms)
	Command being timed: "./k-means_mod ../dataset/xql662.tsp"
	User time (seconds): 0.02
	System time (seconds): 0.00
	Percent of CPU this job got: 100%
	Elapsed (wall clock) time (h:mm:ss or m:ss): 0:00.02
	Average shared text size (kbytes): 0
	Average unshared data size (kbytes): 0
	Average stack size (kbytes): 0
	Average total size (kbytes): 0
	Maximum resident set size (kbytes): 3944
	Average resident set size (kbytes): 0
	Major (requiring I/O) page faults: 0
	Minor (reclaiming a frame) page faults: 170
	Voluntary context switches: 1
	Involuntary context switches: 0
	Swaps: 0
	File system inputs: 0
	File system outputs: 8
	Socket messages sent: 0
	Socket messages received: 0
	Signals delivered: 0
	Page size (bytes): 4096
	Exit status: 0
